\ Generated by MPModelProtoExporter
\   Name             : 
\   Format           : Free
\   Constraints      : 120
\   Variables        : 16
\     Binary         : 0
\     Integer        : 0
\     Continuous     : 16
Maximize
 Obj: -1 _1 -1 _2 -2 _3 -1 _4 +1 _0K_1 +1 _0LT_2 +1 _0MK_1_3 +1 _0ML_2_3_4 +1 _0T1_3 +1 _0T2_4 
Subject to
 Mono_Ineq.__H(0K_1)____H(0K): -1 _0K +1 _0K_1  >= 0
 Mono_Ineq.__H(0K_1)____H(1): -1 _1 +1 _0K_1  >= 0
 Additivity_Ineq.__H(0K_1)____H(0K)___H(1): -1 _1 -1 _0K +1 _0K_1  <= 0
 Mono_Ineq.__H(0LT_2)____H(0LT): -1 _0LT +1 _0LT_2  >= 0
 Mono_Ineq.__H(0LT_2)____H(2): -1 _2 +1 _0LT_2  >= 0
 Additivity_Ineq.__H(0LT_2)____H(0LT)___H(2): -1 _2 -1 _0LT +1 _0LT_2  <= 0
 Mono_Ineq.__H(0MK_1_3)____H(0MK): -1 _0MK +1 _0MK_1_3  >= 0
 Mono_Ineq.__H(0MK_1_3)____H(3): -1 _3 +1 _0MK_1_3  >= 0
 Mono_Ineq.__H(0MK_1_3)____H(1): -1 _1 +1 _0MK_1_3  >= 0
 Additivity_Ineq.__H(0MK_1_3)____H(0MK)___H(3)___H(1): -1 _1 -1 _3 -1 _0MK +1 _0MK_1_3  <= 0
 Mono_Ineq.__H(0ML_2_3_4)____H(0ML): -1 _0ML +1 _0ML_2_3_4  >= 0
 Mono_Ineq.__H(0ML_2_3_4)____H(3): -1 _3 +1 _0ML_2_3_4  >= 0
 Mono_Ineq.__H(0ML_2_3_4)____H(4): -1 _4 +1 _0ML_2_3_4  >= 0
 Mono_Ineq.__H(0ML_2_3_4)____H(2): -1 _2 +1 _0ML_2_3_4  >= 0
 Additivity_Ineq.__H(0ML_2_3_4)____H(0ML)___H(3)___H(4)___H(2): -1 _2 -1 _3 -1 _4 -1 _0ML +1 _0ML_2_3_4  <= 0
 Mono_Ineq.__H(0T1_3)____H(0T1): -1 _0T1 +1 _0T1_3  >= 0
 Mono_Ineq.__H(0T1_3)____H(3): -1 _3 +1 _0T1_3  >= 0
 Additivity_Ineq.__H(0T1_3)____H(0T1)___H(3): -1 _3 -1 _0T1 +1 _0T1_3  <= 0
 Mono_Ineq.__H(0T2_4)____H(0T2): -1 _0T2 +1 _0T2_4  >= 0
 Mono_Ineq.__H(0T2_4)____H(4): -1 _4 +1 _0T2_4  >= 0
 Additivity_Ineq.__H(0T2_4)____H(0T2)___H(4): -1 _4 -1 _0T2 +1 _0T2_4  <= 0
 Statistics_Ineq._1__1___h(0K_1)___0___h(1)____1___log2(134170.0)_|_1_|_K.ID: +1 _0K_1  <= 17.0337
 Statistics_Ineq._2__2___h(0K_1)___1___h(1)____2___log2(366.29223305988893)_|_2_|_K.ID: -1 _1 +2 _0K_1  <= 17.0337
 Statistics_Ineq._3__3___h(0K_1)___2___h(1)____3___log2(51.19393035144834)_|_3_|_K.ID: -2 _1 +3 _0K_1  <= 17.0337
 Statistics_Ineq._4__4___h(0K_1)___3___h(1)____4___log2(19.138762579119085)_|_4_|_K.ID: -3 _1 +4 _0K_1  <= 17.0337
 Statistics_Ineq._5__5___h(0K_1)___4___h(1)____5___log2(10.605498428686793)_|_5_|_K.ID: -4 _1 +5 _0K_1  <= 17.0337
 Statistics_Ineq._6__6___h(0K_1)___5___h(1)____6___log2(7.154993385842389)_|_6_|_K.ID: -5 _1 +6 _0K_1  <= 17.0337
 Statistics_Ineq._7__7___h(0K_1)___6___h(1)____7___log2(5.401597291274521)_|_7_|_K.ID: -6 _1 +7 _0K_1  <= 17.0337
 Statistics_Ineq._8__8___h(0K_1)___7___h(1)____8___log2(4.374787146721436)_|_8_|_K.ID: -7 _1 +8 _0K_1  <= 17.0337
 Statistics_Ineq._9__9___h(0K_1)___8___h(1)____9___log2(3.713124327690797)_|_9_|_K.ID: -8 _1 +9 _0K_1  <= 17.0337
 Statistics_Ineq._10__10___h(0K_1)___9___h(1)____10___log2(3.2566084242178692)_|_10_|_K.ID: -9 _1 +10 _0K_1  <= 17.0337
 Statistics_Ineq._11__h(0K_1)___h(1)____log2(1.0)_|_inf_|_K.ID: -1 _1 +1 _0K_1  <= 0
 Statistics_Ineq._12__1___h(0LT_2)___0___h(2)____1___log2(16.0)_|_1_|_LT.ID: +1 _0LT_2  <= 4
 Statistics_Ineq._13__2___h(0LT_2)___1___h(2)____2___log2(4.0)_|_2_|_LT.ID: -1 _2 +2 _0LT_2  <= 4
 Statistics_Ineq._14__3___h(0LT_2)___2___h(2)____3___log2(2.5198420997897464)_|_3_|_LT.ID: -2 _2 +3 _0LT_2  <= 4
 Statistics_Ineq._15__4___h(0LT_2)___3___h(2)____4___log2(2.0)_|_4_|_LT.ID: -3 _2 +4 _0LT_2  <= 4
 Statistics_Ineq._16__5___h(0LT_2)___4___h(2)____5___log2(1.7411011265922482)_|_5_|_LT.ID: -4 _2 +5 _0LT_2  <= 4
 Statistics_Ineq._17__6___h(0LT_2)___5___h(2)____6___log2(1.5874010519681994)_|_6_|_LT.ID: -5 _2 +6 _0LT_2  <= 4
 Statistics_Ineq._18__7___h(0LT_2)___6___h(2)____7___log2(1.4859942891369484)_|_7_|_LT.ID: -6 _2 +7 _0LT_2  <= 4
 Statistics_Ineq._19__8___h(0LT_2)___7___h(2)____8___log2(1.4142135623730951)_|_8_|_LT.ID: -7 _2 +8 _0LT_2  <= 4
 Statistics_Ineq._20__9___h(0LT_2)___8___h(2)____9___log2(1.360790000174377)_|_9_|_LT.ID: -8 _2 +9 _0LT_2  <= 4
 Statistics_Ineq._21__10___h(0LT_2)___9___h(2)____10___log2(1.3195079107728942)_|_10_|_LT.ID: -9 _2 +10 _0LT_2  <= 4
 Statistics_Ineq._22__h(0LT_2)___h(2)____log2(1.0)_|_inf_|_LT.ID: -1 _2 +1 _0LT_2  <= 0
 Statistics_Ineq._23__1___h(0MK_1_3)___0___h(3)____1___log2(1112597.0)_|_1_|_MK.MOVIE_ID: +1 _0MK_1_3  <= 20.0855
 Statistics_Ineq._24__2___h(0MK_1_3)___1___h(3)____2___log2(13337.617665835229)_|_2_|_MK.MOVIE_ID: -1 _3 +2 _0MK_1_3  <= 27.4064
 Statistics_Ineq._25__3___h(0MK_1_3)___2___h(3)____3___log2(3236.1653184506104)_|_3_|_MK.MOVIE_ID: -2 _3 +3 _0MK_1_3  <= 34.9802
 Statistics_Ineq._26__4___h(0MK_1_3)___3___h(3)____4___log2(1662.0066065588123)_|_4_|_MK.MOVIE_ID: -3 _3 +4 _0MK_1_3  <= 42.7948
 Statistics_Ineq._27__5___h(0MK_1_3)___4___h(3)____5___log2(1147.3453628689751)_|_5_|_MK.MOVIE_ID: -4 _3 +5 _0MK_1_3  <= 50.8204
 Statistics_Ineq._28__6___h(0MK_1_3)___5___h(3)____6___log2(914.7899909806181)_|_6_|_MK.MOVIE_ID: -5 _3 +6 _0MK_1_3  <= 59.0238
 Statistics_Ineq._29__7___h(0MK_1_3)___6___h(3)____7___log2(789.6599818506569)_|_7_|_MK.MOVIE_ID: -6 _3 +7 _0MK_1_3  <= 67.3756
 Statistics_Ineq._30__8___h(0MK_1_3)___7___h(3)____8___log2(714.8099599097243)_|_8_|_MK.MOVIE_ID: -7 _3 +8 _0MK_1_3  <= 75.8513
 Statistics_Ineq._31__9___h(0MK_1_3)___8___h(3)____9___log2(666.8048171917634)_|_9_|_MK.MOVIE_ID: -8 _3 +9 _0MK_1_3  <= 84.4301
 Statistics_Ineq._32__10___h(0MK_1_3)___9___h(3)____10___log2(634.4708103513835)_|_10_|_MK.MOVIE_ID: -9 _3 +10 _0MK_1_3  <= 93.0941
 Statistics_Ineq._33__h(0MK_1_3)___h(3)____log2(540.0)_|_inf_|_MK.MOVIE_ID: -1 _3 +1 _0MK_1_3  <= 9.07682
 Statistics_Ineq._34__1___h(0MK_1_3)___0___h(1)____1___log2(4523930.0)_|_1_|_MK.KEYWORD_ID: +1 _0MK_1_3  <= 22.1091
 Statistics_Ineq._35__2___h(0MK_1_3)___1___h(1)____2___log2(142540.5972767057)_|_2_|_MK.KEYWORD_ID: -1 _1 +2 _0MK_1_3  <= 34.242
 Statistics_Ineq._36__3___h(0MK_1_3)___2___h(1)____3___log2(91933.95257125433)_|_3_|_MK.KEYWORD_ID: -2 _1 +3 _0MK_1_3  <= 49.4649
 Statistics_Ineq._37__4___h(0MK_1_3)___3___h(1)____4___log2(82003.06320560009)_|_4_|_MK.KEYWORD_ID: -3 _1 +4 _0MK_1_3  <= 65.2936
 Statistics_Ineq._38__5___h(0MK_1_3)___4___h(1)____5___log2(78043.67590316865)_|_5_|_MK.KEYWORD_ID: -4 _1 +5 _0MK_1_3  <= 81.26
 Statistics_Ineq._39__6___h(0MK_1_3)___5___h(1)____6___log2(76018.0546797557)_|_6_|_MK.KEYWORD_ID: -5 _1 +6 _0MK_1_3  <= 97.2843
 Statistics_Ineq._40__7___h(0MK_1_3)___6___h(1)____7___log2(74849.51552507188)_|_7_|_MK.KEYWORD_ID: -6 _1 +7 _0MK_1_3  <= 113.342
 Statistics_Ineq._41__8___h(0MK_1_3)___7___h(1)____8___log2(74123.73792740938)_|_8_|_MK.KEYWORD_ID: -7 _1 +8 _0MK_1_3  <= 129.421
 Statistics_Ineq._42__9___h(0MK_1_3)___8___h(1)____9___log2(73649.49002095767)_|_9_|_MK.KEYWORD_ID: -8 _1 +9 _0MK_1_3  <= 145.515
 Statistics_Ineq._43__10___h(0MK_1_3)___9___h(1)____10___log2(73328.0635960675)_|_10_|_MK.KEYWORD_ID: -9 _1 +10 _0MK_1_3  <= 161.621
 Statistics_Ineq._44__h(0MK_1_3)___h(1)____log2(72496.0)_|_inf_|_MK.KEYWORD_ID: -1 _1 +1 _0MK_1_3  <= 16.1456
 Statistics_Ineq._45__1___h(0ML_2_3_4)___0___h(3)____1___log2(29997.0)_|_1_|_ML.MOVIE_ID: +1 _0ML_2_3_4  <= 14.8725
 Statistics_Ineq._46__2___h(0ML_2_3_4)___1___h(3)____2___log2(1213.1327215107174)_|_2_|_ML.MOVIE_ID: -1 _3 +2 _0ML_2_3_4  <= 20.489
 Statistics_Ineq._47__3___h(0ML_2_3_4)___2___h(3)____3___log2(750.1502401240858)_|_3_|_ML.MOVIE_ID: -2 _3 +3 _0ML_2_3_4  <= 28.6531
 Statistics_Ineq._48__4___h(0ML_2_3_4)___3___h(3)____4___log2(664.2058945139274)_|_4_|_ML.MOVIE_ID: -3 _3 +4 _0ML_2_3_4  <= 37.5019
 Statistics_Ineq._49__5___h(0ML_2_3_4)___4___h(3)____5___log2(631.7613858973442)_|_5_|_ML.MOVIE_ID: -4 _3 +5 _0ML_2_3_4  <= 46.5162
 Statistics_Ineq._50__6___h(0ML_2_3_4)___5___h(3)____6___log2(614.8203730050602)_|_6_|_ML.MOVIE_ID: -5 _3 +6 _0ML_2_3_4  <= 55.5841
 Statistics_Ineq._51__7___h(0ML_2_3_4)___6___h(3)____7___log2(604.3057265104591)_|_7_|_ML.MOVIE_ID: -6 _3 +7 _0ML_2_3_4  <= 64.6739
 Statistics_Ineq._52__8___h(0ML_2_3_4)___7___h(3)____8___log2(597.0930053991272)_|_8_|_ML.MOVIE_ID: -7 _3 +8 _0ML_2_3_4  <= 73.7745
 Statistics_Ineq._53__9___h(0ML_2_3_4)___8___h(3)____9___log2(591.8294869471011)_|_9_|_ML.MOVIE_ID: -8 _3 +9 _0ML_2_3_4  <= 82.8813
 Statistics_Ineq._54__10___h(0ML_2_3_4)___9___h(3)____10___log2(587.8288234246537)_|_10_|_ML.MOVIE_ID: -9 _3 +10 _0ML_2_3_4  <= 91.9925
 Statistics_Ineq._55__h(0ML_2_3_4)___h(3)____log2(569.0)_|_inf_|_ML.MOVIE_ID: -1 _3 +1 _0ML_2_3_4  <= 9.15228
 Statistics_Ineq._56__1___h(0ML_2_3_4)___0___h(4)____1___log2(29997.0)_|_1_|_ML.LINKED_MOVIE_ID: +1 _0ML_2_3_4  <= 14.8725
 Statistics_Ineq._57__2___h(0ML_2_3_4)___1___h(4)____2___log2(436.67035621850954)_|_2_|_ML.LINKED_MOVIE_ID: -1 _4 +2 _0ML_2_3_4  <= 17.5408
 Statistics_Ineq._58__3___h(0ML_2_3_4)___2___h(4)____3___log2(179.40920499269947)_|_3_|_ML.LINKED_MOVIE_ID: -2 _4 +3 _0ML_2_3_4  <= 22.4613
 Statistics_Ineq._59__4___h(0ML_2_3_4)___3___h(4)____4___log2(143.90136544077282)_|_4_|_ML.LINKED_MOVIE_ID: -3 _4 +4 _0ML_2_3_4  <= 28.6757
 Statistics_Ineq._60__5___h(0ML_2_3_4)___4___h(4)____5___log2(135.4003350371657)_|_5_|_ML.LINKED_MOVIE_ID: -4 _4 +5 _0ML_2_3_4  <= 35.4054
 Statistics_Ineq._61__6___h(0ML_2_3_4)___5___h(4)____6___log2(132.73338716169695)_|_6_|_ML.LINKED_MOVIE_ID: -5 _4 +6 _0ML_2_3_4  <= 42.3143
 Statistics_Ineq._62__7___h(0ML_2_3_4)___6___h(4)____7___log2(131.74029994079464)_|_7_|_ML.LINKED_MOVIE_ID: -6 _4 +7 _0ML_2_3_4  <= 49.2909
 Statistics_Ineq._63__8___h(0ML_2_3_4)___7___h(4)____8___log2(131.33154793717202)_|_8_|_ML.LINKED_MOVIE_ID: -7 _4 +8 _0ML_2_3_4  <= 56.2966
 Statistics_Ineq._64__9___h(0ML_2_3_4)___8___h(4)____9___log2(131.15311280660916)_|_9_|_ML.LINKED_MOVIE_ID: -8 _4 +9 _0ML_2_3_4  <= 63.316
 Statistics_Ineq._65__10___h(0ML_2_3_4)___9___h(4)____10___log2(131.0722609905116)_|_10_|_ML.LINKED_MOVIE_ID: -9 _4 +10 _0ML_2_3_4  <= 70.3422
 Statistics_Ineq._66__h(0ML_2_3_4)___h(4)____log2(131.0)_|_inf_|_ML.LINKED_MOVIE_ID: -1 _4 +1 _0ML_2_3_4  <= 7.03342
 Statistics_Ineq._67__1___h(0ML_2_3_4)___0___h(2)____1___log2(29997.0)_|_1_|_ML.LINK_TYPE_ID: +1 _0ML_2_3_4  <= 14.8725
 Statistics_Ineq._68__2___h(0ML_2_3_4)___1___h(2)____2___log2(12292.900349388667)_|_2_|_ML.LINK_TYPE_ID: -1 _2 +2 _0ML_2_3_4  <= 27.1711
 Statistics_Ineq._69__3___h(0ML_2_3_4)___2___h(2)____3___log2(9975.940412766955)_|_3_|_ML.LINK_TYPE_ID: -2 _2 +3 _0ML_2_3_4  <= 39.8527
 Statistics_Ineq._70__4___h(0ML_2_3_4)___3___h(2)____4___log2(9226.180008352485)_|_4_|_ML.LINK_TYPE_ID: -3 _2 +4 _0ML_2_3_4  <= 52.6861
 Statistics_Ineq._71__5___h(0ML_2_3_4)___4___h(2)____5___log2(8909.028014886519)_|_5_|_ML.LINK_TYPE_ID: -4 _2 +5 _0ML_2_3_4  <= 65.6053
 Statistics_Ineq._72__6___h(0ML_2_3_4)___5___h(2)____6___log2(8758.238819262004)_|_6_|_ML.LINK_TYPE_ID: -5 _2 +6 _0ML_2_3_4  <= 78.5786
 Statistics_Ineq._73__7___h(0ML_2_3_4)___6___h(2)____7___log2(8681.96177837495)_|_7_|_ML.LINK_TYPE_ID: -6 _2 +7 _0ML_2_3_4  <= 91.5866
 Statistics_Ineq._74__8___h(0ML_2_3_4)___7___h(2)____8___log2(8641.889460301132)_|_8_|_ML.LINK_TYPE_ID: -7 _2 +8 _0ML_2_3_4  <= 104.617
 Statistics_Ineq._75__9___h(0ML_2_3_4)___8___h(2)____9___log2(8620.288819110365)_|_9_|_ML.LINK_TYPE_ID: -8 _2 +9 _0ML_2_3_4  <= 117.662
 Statistics_Ineq._76__10___h(0ML_2_3_4)___9___h(2)____10___log2(8608.422118955614)_|_10_|_ML.LINK_TYPE_ID: -9 _2 +10 _0ML_2_3_4  <= 130.715
 Statistics_Ineq._77__h(0ML_2_3_4)___h(2)____log2(8593.0)_|_inf_|_ML.LINK_TYPE_ID: -1 _2 +1 _0ML_2_3_4  <= 13.0689
 Statistics_Ineq._78__1___h(0T1_3)___0___h(3)____1___log2(8192.0)_|_1_|_T1.ID: +1 _0T1_3  <= 13
 Statistics_Ineq._79__2___h(0T1_3)___1___h(3)____2___log2(90.50966799187809)_|_2_|_T1.ID: -1 _3 +2 _0T1_3  <= 13
 Statistics_Ineq._80__3___h(0T1_3)___2___h(3)____3___log2(20.158736798317967)_|_3_|_T1.ID: -2 _3 +3 _0T1_3  <= 13
 Statistics_Ineq._81__4___h(0T1_3)___3___h(3)____4___log2(9.513656920021768)_|_4_|_T1.ID: -3 _3 +4 _0T1_3  <= 13
 Statistics_Ineq._82__5___h(0T1_3)___4___h(3)____5___log2(6.062866266041593)_|_5_|_T1.ID: -4 _3 +5 _0T1_3  <= 13
 Statistics_Ineq._83__6___h(0T1_3)___5___h(3)____6___log2(4.489848193237491)_|_6_|_T1.ID: -5 _3 +6 _0T1_3  <= 13
 Statistics_Ineq._84__7___h(0T1_3)___6___h(3)____7___log2(3.6228946570556264)_|_7_|_T1.ID: -6 _3 +7 _0T1_3  <= 13
 Statistics_Ineq._85__8___h(0T1_3)___7___h(3)____8___log2(3.0844216508158815)_|_8_|_T1.ID: -7 _3 +8 _0T1_3  <= 13
 Statistics_Ineq._86__9___h(0T1_3)___8___h(3)____9___log2(2.721580000348754)_|_9_|_T1.ID: -8 _3 +9 _0T1_3  <= 13
 Statistics_Ineq._87__10___h(0T1_3)___9___h(3)____10___log2(2.4622888266898326)_|_10_|_T1.ID: -9 _3 +10 _0T1_3  <= 13
 Statistics_Ineq._88__h(0T1_3)___h(3)____log2(1.0)_|_inf_|_T1.ID: -1 _3 +1 _0T1_3  <= 0
 Statistics_Ineq._89__1___h(0T2_4)___0___h(4)____1___log2(16384.0)_|_1_|_T2.ID: +1 _0T2_4  <= 14
 Statistics_Ineq._90__2___h(0T2_4)___1___h(4)____2___log2(128.0)_|_2_|_T2.ID: -1 _4 +2 _0T2_4  <= 14
 Statistics_Ineq._91__3___h(0T2_4)___2___h(4)____3___log2(25.398416831491186)_|_3_|_T2.ID: -2 _4 +3 _0T2_4  <= 14
 Statistics_Ineq._92__4___h(0T2_4)___3___h(4)____4___log2(11.313708498984761)_|_4_|_T2.ID: -3 _4 +4 _0T2_4  <= 14
 Statistics_Ineq._93__5___h(0T2_4)___4___h(4)____5___log2(6.964404506368994)_|_5_|_T2.ID: -4 _4 +5 _0T2_4  <= 14
 Statistics_Ineq._94__6___h(0T2_4)___5___h(4)____6___log2(5.039684199579492)_|_6_|_T2.ID: -5 _4 +6 _0T2_4  <= 14
 Statistics_Ineq._95__7___h(0T2_4)___6___h(4)____7___log2(3.9999999999999996)_|_7_|_T2.ID: -6 _4 +7 _0T2_4  <= 14
 Statistics_Ineq._96__8___h(0T2_4)___7___h(4)____8___log2(3.363585661014858)_|_8_|_T2.ID: -7 _4 +8 _0T2_4  <= 14
 Statistics_Ineq._97__9___h(0T2_4)___8___h(4)____9___log2(2.9394689845511977)_|_9_|_T2.ID: -8 _4 +9 _0T2_4  <= 14
 Statistics_Ineq._98__10___h(0T2_4)___9___h(4)____10___log2(2.639015821545789)_|_10_|_T2.ID: -9 _4 +10 _0T2_4  <= 14
 Statistics_Ineq._99__h(0T2_4)___h(4)____log2(1.0)_|_inf_|_T2.ID: -1 _4 +1 _0T2_4  <= 0
Bounds
 0 <= _1
 0 <= _2
 0 <= _3
 0 <= _4
 0 <= _0K
 0 <= _0K_1
 0 <= _0LT
 0 <= _0LT_2
 0 <= _0MK
 0 <= _0MK_1_3
 0 <= _0ML
 0 <= _0ML_2_3_4
 0 <= _0T1
 0 <= _0T1_3
 0 <= _0T2
 0 <= _0T2_4
End
